22	3	3
5	4	3	49	42	62	
0	0	0	0	7	3	1	7	9	6	20	2	3	4	5	6	7	8	9	10	11	12	13	14	15	16	17	18	19	20	21
5	0	2	1	9	4	8	2	5	3	4	22	11	20	12
2	1	2	0	8	6	6	5	3	8	2	22	4
2	0	2	0	4	1	8	4	9	3	2	22	13
1	1	0	0	9	5	10	10	4	4	1	22
4	0	1	1	5	1	7	6	7	6	1	22
3	0	0	1	1	6	10	9	7	4	2	22	17
5	2	2	1	2	4	9	7	9	1	1	22
3	1	0	1	5	3	2	2	6	1	2	22	12
2	0	1	0	5	5	5	4	5	8	3	22	21	12
5	1	2	0	8	9	8	5	5	5	1	22
1	0	2	1	10	6	10	9	4	7	2	22	19
4	0	0	1	2	5	1	1	2	10	1	22
4	2	0	0	2	6	2	3	7	8	2	22	18
3	1	1	0	3	2	2	7	6	6	2	22	16
1	0	1	1	5	3	5	3	7	9	3	22	19	20
4	0	0	1	7	6	4	7	4	8	1	22
1	0	1	1	4	6	3	4	6	4	1	22
1	2	0	0	3	7	9	5	10	6	1	22
1	2	1	0	3	3	7	4	10	2	1	22
1	0	1	1	10	4	5	5	7	1	1	22
0	0	0	0	4	3	7	8	10	1	0
